NAME: tsp_95
COMMENT: Random TSP instance
TYPE: TSP
DIMENSION: 50
EDGE_WEIGHT_TYPE: EUC_2D
NODE_COORD_SECTION
1 907 142
2 203 884
3 38 376
4 680 516
5 900 135
6 693 860
7 505 949
8 218 548
9 753 152
10 898 436
11 532 765
12 480 159
13 146 37
14 910 329
15 93 169
16 661 581
17 113 754
18 1000 269
19 511 56
20 609 48
21 411 580
22 819 174
23 327 969
24 362 830
25 298 746
26 306 697
27 31 547
28 181 920
29 626 21
30 741 528
31 141 119
32 615 217
33 578 130
34 549 527
35 63 437
36 168 982
37 111 954
38 259 663
39 857 644
40 887 764
41 336 271
42 763 41
43 780 308
44 631 206
45 263 271
46 977 588
47 537 587
48 62 124
49 463 517
50 757 700
